NAME: ./prFile/tspFile/tsp_file78.tsp
COMMENT: TSP file generated by Python
TYPE: TSP
DIMENSION: 40
EDGE_WEIGHT_TYPE: EUC_2D
NODE_COORD_SECTION
1 56 47
2 26 6
3 91 54
4 21 63
5 34 63
6 81 74
7 51 21
8 70 18
9 5 85
10 38 33
11 41 71
12 98 96
13 82 95
14 46 17
15 23 56
16 44 57
17 19 27
18 11 68
19 74 10
20 75 92
21 40 65
22 22 58
23 100 41
24 97 37
25 28 23
26 26 53
27 66 32
28 89 13
29 94 80
30 87 63
31 71 81
32 49 80
33 22 72
34 41 73
35 32 70
36 56 95
37 56 73
38 47 20
39 13 4
40 48 59
EOF
